datasets/2-dimensional/CL_06_25_02.vbp
2
150 150 
25
27 77 30
88 24 72
79 30 4
43 32 88
53 74 54
45 67 64
65 30 90
23 87 26
97 69 94
91 74 28
77 66 72
73 36 49
42 82 54
56 89 19
53 47 28
77 55 61
40 77 84
38 24 23
38 73 67
28 29 53
28 44 54
82 55 16
21 27 9
23 30 54
52 82 77
