datasets/2-dimensional/CL_06_25_02.txt
150 150 
0 30 27 77 
1 72 88 24 
2 4 79 30 
3 88 43 32 
4 54 53 74 
5 64 45 67 
6 90 65 30 
7 26 23 87 
8 94 97 69 
9 28 91 74 
10 72 77 66 
11 49 73 36 
12 54 42 82 
13 19 56 89 
14 28 53 47 
15 61 77 55 
16 84 40 77 
17 23 38 24 
18 67 38 73 
19 53 28 29 
20 54 28 44 
21 16 82 55 
22 9 21 27 
23 54 23 30 
24 77 52 82 
